(set-logic QF_FP)
(set-info :source |Random FP created by PyMPF|)
(set-info :category random)
(set-info :status unsat)
(declare-const x Float32)
(assert (= x ((_ to_fp 8 24) #xC4A5DBF9)))
(declare-const y Float32)
(assert (= y ((_ to_fp 8 24) #x957F8B90)))
(declare-const z Float32)
(assert (= z ((_ to_fp 8 24) #xA7D42C09)))
(declare-const result Float32)
(assert (= result (fp.fma RNA x y z)))
(assert (not (= result ((_ to_fp 8 24) #xA7D42C09))))
(check-sat)
(exit)
